sat
(:max-memory          18.15
 :memory              17.72
 :num-allocs          123144
 :rlimit-count        21952
 :sls-ddfw-flips      116.00
 :sls-ddfw-shifts     1.00
 :solve-eqs-elim-vars 5
 :solve-eqs-steps     12
 :time                0.00
 :total-time          0.01)
